etc/upTests/tupley32-8-10/0001.eprime
language ESSENCE' 1.0

find pain_tuple1_tuple1: matrix indexed by [int(1)] of int(8)
find pain_tuple1_tuple2: matrix indexed by [int(1)] of int(3)
find pain_tuple2_tuple1_tuple1:
        matrix indexed by [int(1), int(1), int(1)] of int(12)
find pain_tuple2_tuple1_tuple2:
        matrix indexed by [int(1), int(1), int(1)] of int(13)
find pain_tuple2_tuple2_tuple1: matrix indexed by [int(1), int(1)] of int(14)
find pain_tuple2_tuple2_tuple2: matrix indexed by [int(1), int(1)] of int(15)
find pain_tuple3_tuple1: matrix indexed by [int(1)] of int(15)
find pain_tuple3_tuple2: matrix indexed by [int(1)] of int(16)
find pain_tuple3_tuple3: matrix indexed by [int(1)] of int(17)
find pain_tuple3_tuple4: matrix indexed by [int(1)] of int(18)
such that
    pain_tuple1_tuple1[1] = 8,
    pain_tuple1_tuple2[1] = 3,
    pain_tuple3_tuple1[1] = 15,
    pain_tuple3_tuple2[1] = 16,
    pain_tuple3_tuple3[1] = 17,
    pain_tuple3_tuple4[1] = 18,
    forAll v__0 : int(1)
        . (forAll v__1 : int(1)
               . pain_tuple2_tuple1_tuple1[1, v__0, v__1] = [[(12, 13)]][v__0, v__1, 1]
                 /\
                 pain_tuple2_tuple1_tuple2[1, v__0, v__1] = [[(12, 13)]][v__0, v__1, 2])
          /\
          (pain_tuple2_tuple2_tuple1[1, v__0] = [14][v__0]
           /\
           pain_tuple2_tuple2_tuple2[1, v__0] = [15][v__0])
