etc/upTests/tupley32-8-10/0001.eprime.solution
language ESSENCE' 1.0
$ minion Nodes: 1
$ minion TotalTime: 0.000689
$ Savile Row TotalTime: 0.347
letting pain_tuple3_tuple2 be [16]
letting pain_tuple3_tuple1 be [15]
letting pain_tuple2_tuple1_tuple2 be [[[13]]]
letting pain_tuple3_tuple4 be [18]
letting pain_tuple1_tuple1 be [8]
letting pain_tuple3_tuple3 be [17]
letting pain_tuple1_tuple2 be [3]
letting pain_tuple2_tuple2_tuple2 be [[15]]
letting pain_tuple2_tuple1_tuple1 be [[[12]]]
letting pain_tuple2_tuple2_tuple1 be [[14]]
